Minimize
  - 10 y_0 - 10 y_1 - 6 y_2 - 9 y_3 - 10 y_4 - 8 y_5 - 9 y_6 - 9 y_7 - 9 y_8
   - 10 y_9 - 8 y_10 - 10 y_11 - 11 y_12 - 8 y_13 - 9 y_14 - 5 y_15
   - 9 y_16 - 12 y_17 - 6 y_18 - 11 y_19 - 10 y_20 - 4 y_21 - 12 y_23
   - 8 y_24 - 4 y_25 - 9 y_26 - 4 y_27 - 7 y_28 - 3 y_29 - 11 y_30
   - 11 y_31 - 4 y_32 - 10 y_33 - 10 y_34 - 8 y_35 - 11 y_36 - 7 y_37
   - 9 y_38 - 11 y_39 - 10 y_40 - y_41 - 3 y_42 - 7 y_43 - 7 y_44 - 3 y_45
   - 3 y_46 - 3 y_47 - 6 y_48 - 11 y_49 - 7 y_50 - 12 y_51 - y_52 - 10 y_53
   - 2 y_54 - 10 y_55 - 7 y_56 - 5 y_57 - 5 y_58 - 4 y_59 - 12 y_60
   - 12 y_61 - 12 y_62 - 10 y_63 - 11 y_64 - 10 y_65 - 6 y_66 - 6 y_67
   - 3 y_68 - 10 y_69 - 7 y_70 - 11 y_71 - 11 y_72 - 11 y_73 - 10 y_74
   - 7 y_75 - 10 y_76 - 7 y_77 - 10 y_78 - 9 y_79 - 4 y_80 - 6 y_81
   - 8 y_82 - 6 y_83 - 9 y_84 - 3 y_85 - 8 y_86 - 3 y_87 - 6 y_88 - 10 y_89
   - 10 y_90 - 12 y_91 - 9 y_92 - 8 y_93 - 6 y_94 - 13 y_95 - 7 y_96
   - 11 y_97 - 3 y_98 - 9 y_99 + 785 Constant
Subject To
 c_0: y_94 = 1
 c_1_0: y_0 + y_4 + y_16 + y_53 + y_90 >= 1
 c_1_1: y_1 + y_39 >= 1
 c_1_2: y_2 + y_44 + y_94 >= 1
 c_1_3: y_3 + y_92 >= 1
 c_1_4: y_0 + y_4 + y_53 + y_84 + y_90 >= 1
 c_1_5: y_5 + y_6 + y_43 + y_50 >= 1
 c_1_6: y_5 + y_6 >= 1
 c_1_7: y_7 + y_10 + y_16 + y_84 + y_86 >= 1
 c_1_8: y_8 + y_13 + y_14 + y_38 >= 1
 c_1_9: y_9 + y_14 + y_20 + y_40 + y_55 + y_65 + y_74 >= 1
 c_1_10: y_7 + y_10 + y_24 + y_84 + y_86 >= 1
 c_1_11: y_11 + y_49 + y_89 + y_97 >= 1
 c_1_12: y_12 + y_19 + y_39 + y_62 + y_69 >= 1
 c_1_13: y_8 + y_13 + y_93 >= 1
 c_1_14: y_8 + y_9 + y_14 + y_20 + y_38 + y_55 + y_65 + y_89 >= 1
 c_1_15: y_15 + y_80 >= 1
 c_1_16: y_0 + y_7 + y_16 + y_84 + y_86 >= 1
 c_1_17: y_17 + y_36 + y_51 + y_60 + y_62 >= 1
 c_1_18: y_18 + y_66 >= 1
 c_1_19: y_12 + y_19 + y_39 + y_61 + y_62 >= 1
 c_1_20: y_9 + y_14 + y_20 + y_40 + y_55 + y_65 + y_74 >= 1
 c_1_21: y_21 + y_45 + y_57 + y_59 >= 1
 c_1_22: y_22 + y_41 >= 1
 c_1_23: y_23 + y_61 + y_91 >= 1
 c_1_24: y_10 + y_24 + y_44 + y_86 >= 1
 c_1_25: y_25 + y_27 + y_32 >= 1
 c_1_26: y_26 + y_34 + y_76 >= 1
 c_1_27: y_25 + y_27 + y_46 + y_68 + y_85 + y_98 >= 1
 c_1_28: y_28 + y_37 + y_56 + y_75 >= 1
 c_1_29: y_29 + y_42 + y_45 + y_87 >= 1
 c_1_30: y_30 + y_40 + y_49 + y_89 + y_97 >= 1
 c_1_31: y_31 + y_36 + y_60 + y_71 + y_73 >= 1
 c_1_32: y_25 + y_32 + y_58 >= 1
 c_1_33: y_33 >= 1
 c_1_34: y_26 + y_34 + y_63 >= 1
 c_1_35: y_35 + y_79 + y_82 + y_93 >= 1
 c_1_36: y_17 + y_31 + y_36 + y_51 + y_60 + y_62 + y_71 + y_73 >= 1
 c_1_37: y_28 + y_37 + y_56 + y_75 >= 1
 c_1_38: y_8 + y_14 + y_38 + y_65 >= 1
 c_1_39: y_1 + y_12 + y_19 + y_39 + y_61 + y_91 >= 1
 c_1_40: y_9 + y_20 + y_30 + y_40 + y_55 + y_65 + y_74 + y_89 >= 1
 c_1_41: y_22 + y_41 + y_54 >= 1
 c_1_42: y_29 + y_42 + y_45 + y_59 >= 1
 c_1_43: y_5 + y_43 + y_50 + y_81 >= 1
 c_1_44: y_2 + y_24 + y_44 >= 1
 c_1_45: y_21 + y_29 + y_42 + y_45 + y_59 >= 1
 c_1_46: y_27 + y_46 + y_47 + y_85 + y_98 >= 1
 c_1_47: y_46 + y_47 + y_85 + y_98 >= 1
 c_1_48: y_48 >= 1
 c_1_49: y_11 + y_30 + y_49 + y_89 + y_97 >= 1
 c_1_50: y_5 + y_43 + y_50 >= 1
 c_1_51: y_17 + y_36 + y_51 + y_60 + y_62 >= 1
 c_1_52: y_52 >= 1
 c_1_53: y_0 + y_4 + y_53 + y_90 >= 1
 c_1_54: y_41 + y_54 >= 1
 c_1_55: y_9 + y_14 + y_20 + y_40 + y_55 + y_65 + y_74 + y_89 >= 1
 c_1_56: y_28 + y_37 + y_56 + y_75 >= 1
 c_1_57: y_21 + y_57 >= 1
 c_1_58: y_32 + y_58 >= 1
 c_1_59: y_21 + y_42 + y_45 + y_59 >= 1
 c_1_60: y_17 + y_31 + y_36 + y_51 + y_60 + y_71 + y_73 >= 1
 c_1_61: y_19 + y_23 + y_39 + y_61 + y_91 >= 1
 c_1_62: y_12 + y_17 + y_19 + y_36 + y_51 + y_62 >= 1
 c_1_63: y_34 + y_63 >= 1
 c_1_64: y_64 + y_72 >= 1
 c_1_65: y_9 + y_14 + y_20 + y_38 + y_40 + y_55 + y_65 + y_89 >= 1
 c_1_66: y_18 + y_66 + y_70 >= 1
 c_1_67: y_67 + y_77 >= 1
 c_1_68: y_27 + y_68 + y_87 >= 1
 c_1_69: y_12 + y_69 + y_78 >= 1
 c_1_70: y_66 + y_70 + y_82 >= 1
 c_1_71: y_31 + y_36 + y_60 + y_71 + y_73 >= 1
 c_1_72: y_64 + y_72 >= 1
 c_1_73: y_31 + y_36 + y_60 + y_71 + y_73 >= 1
 c_1_74: y_9 + y_20 + y_40 + y_55 + y_74 >= 1
 c_1_75: y_28 + y_37 + y_56 + y_75 >= 1
 c_1_76: y_26 + y_76 >= 1
 c_1_77: y_67 + y_77 >= 1
 c_1_78: y_69 + y_78 + y_99 >= 1
 c_1_79: y_35 + y_79 + y_82 >= 1
 c_1_80: y_15 + y_80 >= 1
 c_1_81: y_43 + y_81 >= 1
 c_1_82: y_35 + y_70 + y_79 + y_82 + y_93 >= 1
 c_1_83: y_83 + y_88 + y_94 >= 1
 c_1_84: y_4 + y_7 + y_10 + y_16 + y_84 + y_86 >= 1
 c_1_85: y_27 + y_46 + y_47 + y_85 + y_98 >= 1
 c_1_86: y_7 + y_10 + y_16 + y_24 + y_84 + y_86 >= 1
 c_1_87: y_29 + y_68 + y_87 >= 1
 c_1_88: y_83 + y_88 + y_94 >= 1
 c_1_89: y_11 + y_14 + y_30 + y_40 + y_49 + y_55 + y_65 + y_89 + y_97 >= 1
 c_1_90: y_0 + y_4 + y_53 + y_90 >= 1
 c_1_91: y_23 + y_39 + y_61 + y_91 >= 1
 c_1_92: y_3 + y_92 >= 1
 c_1_93: y_13 + y_35 + y_82 + y_93 + y_99 >= 1
 c_1_94: y_2 + y_83 + y_88 + y_94 >= 1
 c_1_95: y_95 >= 1
 c_1_96: y_96 >= 1
 c_1_97: y_11 + y_30 + y_49 + y_89 + y_97 >= 1
 c_1_98: y_27 + y_46 + y_47 + y_85 + y_98 >= 1
 c_1_99: y_78 + y_93 + y_99 >= 1
Bounds
 Constant = 1
Binaries
 y_0 y_1 y_2 y_3 y_4 y_5 y_6 y_7 y_8 y_9 y_10 y_11 y_12 y_13 y_14 y_15 y_16
 y_17 y_18 y_19 y_20 y_21 y_22 y_23 y_24 y_25 y_26 y_27 y_28 y_29 y_30 y_31
 y_32 y_33 y_34 y_35 y_36 y_37 y_38 y_39 y_40 y_41 y_42 y_43 y_44 y_45 y_46
 y_47 y_48 y_49 y_50 y_51 y_52 y_53 y_54 y_55 y_56 y_57 y_58 y_59 y_60 y_61
 y_62 y_63 y_64 y_65 y_66 y_67 y_68 y_69 y_70 y_71 y_72 y_73 y_74 y_75 y_76
 y_77 y_78 y_79 y_80 y_81 y_82 y_83 y_84 y_85 y_86 y_87 y_88 y_89 y_90 y_91
 y_92 y_93 y_94 y_95 y_96 y_97 y_98 y_99
End
